peakDumbCharging = 11100; 
Machine = anon_enum(16); 
machineSpeed = [3700,3700,3700,3700,3700,3700,3700,3700,3700,3700,3700,3700,3700,3700,3700,3700]; 
machineLoad = [3700,3700,3700,3700,3700,3700,3700,3700,3700,3700,3700,3700,3700,3700,3700,3700]; 
Car = anon_enum(9); 
demandCar = [16840,21560,7720,10160,3880,4200,4440,6760,10400]; 
arrivalCar = [74,70,66,62,61,58,58,56,42]; 
departureCar = [80,79,69,66,63,65,60,61,48]; 
